20
1 0 11
2 0 28
2 1 37
3 0 11
3 1 3
3 2 12
4 0 1
4 1 19
4 2 35
4 3 1
5 0 2
5 1 15
5 2 3
5 3 6
5 4 10
6 0 6
6 1 1
6 2 26
6 3 29
6 4 31
6 5 12
7 0 30
7 1 18
7 2 10
7 3 16
7 4 30
7 5 31
7 6 40
8 0 15
8 1 10
8 2 27
8 3 16
8 4 7
8 5 18
8 6 28
8 7 15
9 0 11
9 1 39
9 2 23
9 3 26
9 4 7
9 5 23
9 6 33
9 7 1
9 8 40
10 0 19
10 1 40
10 2 27
10 3 32
10 4 23
10 5 5
10 6 29
10 7 25
10 8 7
10 9 25
11 0 1
11 1 21
11 2 20
11 3 2
11 4 12
11 5 35
11 6 2
11 7 32
11 8 5
11 9 24
11 10 8
12 0 8
12 1 36
12 2 14
12 3 2
12 4 18
12 5 20
12 6 38
12 7 11
12 8 2
12 9 28
12 10 3
12 11 13
13 0 11
13 1 29
13 2 16
13 3 19
13 4 9
13 5 27
13 6 27
13 7 13
13 8 35
13 9 20
13 10 9
13 11 38
13 12 4
14 0 32
14 1 5
14 2 31
14 3 13
14 4 24
14 5 32
14 6 29
14 7 35
14 8 4
14 9 37
14 10 15
14 11 20
14 12 30
14 13 31
15 0 3
15 1 38
15 2 11
15 3 30
15 4 17
15 5 35
15 6 21
15 7 7
15 8 10
15 9 32
15 10 10
15 11 33
15 12 9
15 13 15
15 14 8
16 0 6
16 1 36
16 2 5
16 3 5
16 4 24
16 5 15
16 6 12
16 7 21
16 8 28
16 9 4
16 10 20
16 11 10
16 12 1
16 13 30
16 14 15
16 15 20
17 0 35
17 1 34
17 2 14
17 3 19
17 4 18
17 5 23
17 6 9
17 7 40
17 8 40
17 9 10
17 10 16
17 11 27
17 12 32
17 13 3
17 14 20
17 15 22
17 16 19
18 0 13
18 1 13
18 2 17
18 3 24
18 4 3
18 5 27
18 6 34
18 7 25
18 8 3
18 9 5
18 10 38
18 11 3
18 12 14
18 13 21
18 14 17
18 15 35
18 16 28
18 17 23
19 0 9
19 1 15
19 2 3
19 3 7
19 4 2
19 5 6
19 6 32
19 7 9
19 8 11
19 9 26
19 10 26
19 11 36
19 12 16
19 13 32
19 14 24
19 15 31
19 16 30
19 17 8
19 18 32
